out.lp
Min: 0.09 x00 + 0.12249999999999998 x01 + 0.0625 x02 + 0.0025000000000000005 x03 + 0.0025000000000000005 x04 + 1.0 x05;

/* Restricci贸n de nota de aprobacion */
0.3 x00 + 0.35 x01 + 0.25 x02 + 0.05 x03 + 0.05 x04 + 1.0 x05 >= 55.0;

/* Restricciones base */

/* Restricci贸n de descomposiciones */
0.07692307692307693 x020 + 0.15384615384615385 x021 + 0.15384615384615385 x022 + 0.15384615384615385 x023 + 0.15384615384615385 x024 + 0.15384615384615385 x025 + 0.15384615384615385 x026 = x02;
0.5 x030 + 0.5 x031 = x03;

/* Reemplazo de evaluaciones con nota */
x00 = 28.0;
x01 = 10.0;
x020 = 100.0;
x021 = 50.0;
x022 = 50.0;
x023 = 90.0;
x024 = 100.0;
x025 = 70.0;
x030 = 120.0;
x05 = 18.0;

/* Restriccion de balance */
x04 - x026 <= 3.4615384615384617;
x04 - x031 <= 3.4615384615384617;
x026 - x04 <= 3.4615384615384617;
x026 - x031 <= 3.4615384615384617;
x031 - x04 <= 3.4615384615384617;
x031 - x026 <= 3.4615384615384617;

/* Restricci贸n de positividad y limite de nota */
x00 >= 0;
x01 >= 0;
x02 >= 0;
x03 >= 0;
x04 >= 0;
x05 >= 0;
x020 >= 0;
x021 >= 0;
x022 >= 0;
x023 >= 0;
x024 >= 0;
x025 >= 0;
x026 >= 0;
x030 >= 0;
x031 >= 0;

/* Restricci贸n de limite de nota */
x04 <= 100;
x026 <= 100;
x031 <= 100;
